c Created with the Wolfram Language : www.wolfram.com
c 
p edge 80 300
e 1 2
e 2 3
e 6 8
e 1 10
e 3 10
e 4 13
e 11 14
e 8 15
e 12 15
e 3 16
e 5 16
e 10 16
e 15 16
e 1 17
e 3 18
e 6 18
e 13 18
e 2 19
e 5 19
e 10 19
e 4 20
e 12 20
e 15 22
e 20 22
e 6 23
e 14 23
e 18 23
e 8 24
e 16 24
e 16 25
e 3 26
e 13 26
e 24 26
e 1 27
e 3 28
e 7 28
e 21 28
e 6 29
e 19 29
e 3 30
e 24 30
e 2 31
e 17 31
e 6 32
e 8 33
e 11 33
e 24 33
e 32 33
e 16 34
e 28 34
e 13 35
e 29 35
e 5 36
e 26 36
e 30 36
e 4 37
e 19 37
e 20 37
e 24 37
e 32 37
e 33 37
e 3 38
e 10 38
e 26 38
e 35 38
e 36 38
e 1 39
e 9 39
e 18 39
e 35 39
e 8 40
e 16 40
e 21 40
e 32 40
e 35 40
e 15 41
e 29 41
e 30 41
e 3 42
e 20 42
e 20 43
e 23 43
e 38 43
e 3 44
e 22 44
e 23 44
e 24 44
e 38 44
e 18 45
e 19 45
e 22 45
e 24 45
e 34 45
e 38 45
e 43 45
e 5 46
e 7 46
e 10 46
e 30 46
e 39 46
e 42 46
e 10 47
e 27 47
e 36 47
e 42 47
e 44 47
e 7 48
e 14 48
e 15 48
e 16 48
e 18 48
e 44 48
e 9 49
e 11 49
e 25 49
e 32 49
e 38 49
e 45 49
e 2 50
e 4 50
e 10 50
e 15 50
e 32 50
e 35 50
e 1 51
e 2 51
e 9 51
e 20 51
e 40 51
e 43 51
e 9 52
e 10 52
e 18 52
e 19 52
e 22 52
e 27 52
e 30 52
e 36 52
e 41 52
e 11 53
e 23 53
e 33 53
e 36 53
e 8 54
e 15 54
e 18 54
e 31 54
e 45 54
e 2 55
e 3 55
e 13 55
e 14 55
e 53 55
e 6 56
e 34 56
e 36 56
e 45 56
e 51 56
e 12 57
e 31 57
e 33 57
e 38 57
e 49 57
e 55 57
e 56 57
e 53 58
e 9 59
e 16 59
e 18 59
e 27 59
e 29 59
e 33 59
e 3 60
e 9 60
e 10 60
e 21 60
e 6 61
e 9 61
e 30 61
e 51 61
e 2 62
e 21 62
e 23 62
e 8 63
e 9 63
e 15 63
e 17 63
e 24 63
e 48 63
e 50 63
e 5 64
e 18 64
e 23 64
e 28 64
e 59 64
e 7 65
e 19 65
e 21 65
e 48 65
e 57 65
e 58 65
e 59 65
e 11 66
e 15 66
e 24 66
e 33 66
e 8 67
e 16 67
e 17 67
e 18 67
e 20 67
e 27 67
e 55 67
e 11 68
e 36 68
e 7 69
e 13 69
e 17 69
e 32 69
e 62 69
e 64 69
e 28 70
e 45 70
e 57 70
e 67 70
e 8 71
e 10 71
e 16 71
e 31 71
e 35 71
e 40 71
e 45 71
e 47 71
e 50 71
e 60 71
e 66 71
e 20 72
e 34 72
e 38 72
e 44 72
e 56 72
e 64 72
e 14 73
e 17 73
e 22 73
e 36 73
e 37 73
e 45 73
e 56 73
e 69 73
e 5 74
e 26 74
e 27 74
e 1 75
e 27 75
e 35 75
e 44 75
e 53 75
e 57 75
e 60 75
e 61 75
e 65 75
e 66 75
e 8 76
e 27 76
e 29 76
e 37 76
e 47 76
e 68 76
e 70 76
e 2 77
e 17 77
e 35 77
e 40 77
e 45 77
e 54 77
e 59 77
e 67 77
e 5 78
e 7 78
e 28 78
e 34 78
e 35 78
e 49 78
e 64 78
e 10 79
e 52 79
e 53 79
e 60 79
e 62 79
e 67 79
e 75 79
e 3 80
e 14 80
e 34 80
e 37 80
e 39 80
e 48 80
e 51 80
e 52 80
